W=8;
H=7;

MAX_TIME=15;
MAX_TRACKS=8;

TARGET=(5,8);

TRAINS=[(1,3,DOWN),(7,3,TOP),(3,1,RIGHT)];
DECOYS=[];

INIT_POS=[
(1,3,STRAIGHT_TD),
(3,1,STRAIGHT_RL),
(3,3,DSWITCH_R_L_D),
(4,3,STRAIGHT_TD),
(4,4,STRAIGHT_TD),
(5,3,DSWITCH_R_L_T),
(5,4,SWITCH_L_R_T),
(5,5,STRAIGHT_RL),
(5,6,STRAIGHT_RL),
(5,7,STRAIGHT_RL),
(5,8,STRAIGHT_RL),
(7,3,STRAIGHT_TD),
];
TUNNEL_PAIRS=[];

GATES=[
(5,6,2,false),
(5,7,1,false),
];
ACTIVATIONS=[
(4,3,1),
(4,4,2),
];

DSWITCHES=[
(3,3,1),
(5,3,2),
];
STATIONS=[];

SEMAPHORE_SUPPLY=0;
